(set-option :produce-models true)
(set-option :produce-unsat-cores true)
(set-option :produce-interpolants true)
(set-option :interpolant-check-mode true)
(set-option :proof-transformation LU)
(set-logic ALL)
(set-info :source |SMT script generated on 2024-03-31T00:15:14+01:00 by Ultimate (https://ultimate.informatik.uni-freiburg.de/)|)
(set-info :smt-lib-version 2.5)
(set-info :category "industrial")
(set-info :ultimate-id Addition03-1.c_AllErrorsAtOnce_Iteration21)
(declare-fun |c_old(#valid)| () (Array Int Int))
(declare-fun |c_old(#valid)_primed| () (Array Int Int))
(declare-fun |c_#valid| () (Array Int Int))
(declare-fun |c_#valid_primed| () (Array Int Int))
(declare-fun |c_old(#length)| () (Array Int Int))
(declare-fun |c_old(#length)_primed| () (Array Int Int))
(declare-fun |c_#length| () (Array Int Int))
(declare-fun |c_#length_primed| () (Array Int Int))
(declare-fun |c_old(#memory_int#0)| () (Array Int (Array Int Int)))
(declare-fun |c_old(#memory_int#0)_primed| () (Array Int (Array Int Int)))
(declare-fun |c_#memory_int#0| () (Array Int (Array Int Int)))
(declare-fun |c_#memory_int#0_primed| () (Array Int (Array Int Int)))
(declare-fun |c_old(#StackHeapBarrier)| () Int)
(declare-fun |c_old(#StackHeapBarrier)_primed| () Int)
(declare-fun |c_#StackHeapBarrier| () Int)
(declare-fun |c_#StackHeapBarrier_primed| () Int)
(declare-fun |c_#Ultimate.allocInit_~size| () Int)
(declare-fun |c_#Ultimate.allocInit_~size_primed| () Int)
(declare-fun |c_#Ultimate.allocInit_ptrBase| () Int)
(declare-fun |c_#Ultimate.allocInit_ptrBase_primed| () Int)
(declare-fun |c_read~int#0_#ptr.base| () Int)
(declare-fun |c_read~int#0_#ptr.base_primed| () Int)
(declare-fun |c_read~int#0_#ptr.offset| () Int)
(declare-fun |c_read~int#0_#ptr.offset_primed| () Int)
(declare-fun |c_read~int#0_#sizeOfReadType| () Int)
(declare-fun |c_read~int#0_#sizeOfReadType_primed| () Int)
(declare-fun |c_read~int#0_#value| () Int)
(declare-fun |c_read~int#0_#value_primed| () Int)
(declare-fun |c_main_#res| () Int)
(declare-fun |c_main_#res_primed| () Int)
(declare-fun |c_main_#t~nondet6| () Int)
(declare-fun |c_main_#t~nondet6_primed| () Int)
(declare-fun |c_main_#t~nondet7| () Int)
(declare-fun |c_main_#t~nondet7_primed| () Int)
(declare-fun |c_main_#t~ret8| () Int)
(declare-fun |c_main_#t~ret8_primed| () Int)
(declare-fun c_main_~m~0 () Int)
(declare-fun c_main_~m~0_primed () Int)
(declare-fun c_main_~n~0 () Int)
(declare-fun c_main_~n~0_primed () Int)
(declare-fun c_main_~result~0 () Int)
(declare-fun c_main_~result~0_primed () Int)
(declare-fun |c_write~int#0_#value| () Int)
(declare-fun |c_write~int#0_#value_primed| () Int)
(declare-fun |c_write~int#0_#ptr.base| () Int)
(declare-fun |c_write~int#0_#ptr.base_primed| () Int)
(declare-fun |c_write~int#0_#ptr.offset| () Int)
(declare-fun |c_write~int#0_#ptr.offset_primed| () Int)
(declare-fun |c_write~int#0_#sizeOfWrittenType| () Int)
(declare-fun |c_write~int#0_#sizeOfWrittenType_primed| () Int)
(declare-fun |c___VERIFIER_nondet_int_#res| () Int)
(declare-fun |c___VERIFIER_nondet_int_#res_primed| () Int)
(declare-fun |c_ULTIMATE.start_#t~ret9| () Int)
(declare-fun |c_ULTIMATE.start_#t~ret9_primed| () Int)
(declare-fun |c___assert_fail_#in~0.base| () Int)
(declare-fun |c___assert_fail_#in~0.base_primed| () Int)
(declare-fun |c___assert_fail_#in~0.offset| () Int)
(declare-fun |c___assert_fail_#in~0.offset_primed| () Int)
(declare-fun |c___assert_fail_#in~1.base| () Int)
(declare-fun |c___assert_fail_#in~1.base_primed| () Int)
(declare-fun |c___assert_fail_#in~1.offset| () Int)
(declare-fun |c___assert_fail_#in~1.offset_primed| () Int)
(declare-fun |c___assert_fail_#in~2| () Int)
(declare-fun |c___assert_fail_#in~2_primed| () Int)
(declare-fun |c___assert_fail_#in~3.base| () Int)
(declare-fun |c___assert_fail_#in~3.base_primed| () Int)
(declare-fun |c___assert_fail_#in~3.offset| () Int)
(declare-fun |c___assert_fail_#in~3.offset_primed| () Int)
(declare-fun |c_write~init~int#0_#value| () Int)
(declare-fun |c_write~init~int#0_#value_primed| () Int)
(declare-fun |c_write~init~int#0_#ptr.base| () Int)
(declare-fun |c_write~init~int#0_#ptr.base_primed| () Int)
(declare-fun |c_write~init~int#0_#ptr.offset| () Int)
(declare-fun |c_write~init~int#0_#ptr.offset_primed| () Int)
(declare-fun |c_write~init~int#0_#sizeOfWrittenType| () Int)
(declare-fun |c_write~init~int#0_#sizeOfWrittenType_primed| () Int)
(declare-fun |c_addition_#in~m| () Int)
(declare-fun |c_addition_#in~m_primed| () Int)
(declare-fun |c_addition_#in~n| () Int)
(declare-fun |c_addition_#in~n_primed| () Int)
(declare-fun |c_addition_#res| () Int)
(declare-fun |c_addition_#res_primed| () Int)
(declare-fun |c_addition_#t~ret4| () Int)
(declare-fun |c_addition_#t~ret4_primed| () Int)
(declare-fun |c_addition_#t~ret5| () Int)
(declare-fun |c_addition_#t~ret5_primed| () Int)
(declare-fun c_addition_~m () Int)
(declare-fun c_addition_~m_primed () Int)
(declare-fun c_addition_~n () Int)
(declare-fun c_addition_~n_primed () Int)
(declare-fun c_ULTIMATE.dealloc_~addr.base () Int)
(declare-fun c_ULTIMATE.dealloc_~addr.base_primed () Int)
(declare-fun c_ULTIMATE.dealloc_~addr.offset () Int)
(declare-fun c_ULTIMATE.dealloc_~addr.offset_primed () Int)
(declare-fun |c_aux_v_ULTIMATE.start_#t~ret9_3| () Int)
(echo "starting trace check")
(push 1)
(declare-fun |#memory_int#0_-1| () (Array Int (Array Int Int)))
(declare-fun |#StackHeapBarrier_-1| () Int)
(declare-fun |#length_-1| () (Array Int Int))
(declare-fun |#valid_-1| () (Array Int Int))
(declare-fun |main_#t~nondet7_4| () Int)
(declare-fun |main_#t~nondet6_4| () Int)
(declare-fun main_~m~0_4 () Int)
(declare-fun main_~n~0_4 () Int)
(declare-fun main_~m~0_5 () Int)
(declare-fun |addition_#in~m_5| () Int)
(declare-fun |addition_#in~n_5| () Int)
(declare-fun main_~n~0_5 () Int)
(declare-fun addition_~n_6 () Int)
(declare-fun addition_~m_6 () Int)
(declare-fun |addition_#in~m_9| () Int)
(declare-fun addition_~n_9 () Int)
(declare-fun |addition_#in~n_9| () Int)
(declare-fun addition_~m_9 () Int)
(declare-fun addition_~n_10 () Int)
(declare-fun addition_~m_10 () Int)
(declare-fun |addition_#in~m_13| () Int)
(declare-fun addition_~n_13 () Int)
(declare-fun |addition_#in~n_13| () Int)
(declare-fun addition_~m_13 () Int)
(declare-fun addition_~n_14 () Int)
(declare-fun addition_~m_14 () Int)
(declare-fun |addition_#in~m_17| () Int)
(declare-fun addition_~n_17 () Int)
(declare-fun |addition_#in~n_17| () Int)
(declare-fun addition_~m_17 () Int)
(declare-fun addition_~n_18 () Int)
(declare-fun addition_~m_18 () Int)
(declare-fun |addition_#in~m_21| () Int)
(declare-fun addition_~n_21 () Int)
(declare-fun |addition_#in~n_21| () Int)
(declare-fun addition_~m_21 () Int)
(declare-fun addition_~n_22 () Int)
(declare-fun addition_~m_22 () Int)
(declare-fun |addition_#in~m_25| () Int)
(declare-fun addition_~n_25 () Int)
(declare-fun |addition_#in~n_25| () Int)
(declare-fun addition_~m_25 () Int)
(declare-fun addition_~n_26 () Int)
(declare-fun addition_~m_26 () Int)
(declare-fun |addition_#in~m_29| () Int)
(declare-fun addition_~n_29 () Int)
(declare-fun |addition_#in~n_29| () Int)
(declare-fun addition_~m_29 () Int)
(declare-fun addition_~n_30 () Int)
(declare-fun addition_~m_30 () Int)
(declare-fun |addition_#in~m_33| () Int)
(declare-fun addition_~n_33 () Int)
(declare-fun |addition_#in~n_33| () Int)
(declare-fun addition_~m_33 () Int)
(declare-fun addition_~n_34 () Int)
(declare-fun addition_~m_34 () Int)
(declare-fun |addition_#in~m_37| () Int)
(declare-fun addition_~n_37 () Int)
(declare-fun |addition_#in~n_37| () Int)
(declare-fun addition_~m_37 () Int)
(declare-fun addition_~n_38 () Int)
(declare-fun addition_~m_38 () Int)
(declare-fun |addition_#in~m_41| () Int)
(declare-fun addition_~n_41 () Int)
(declare-fun |addition_#in~n_41| () Int)
(declare-fun addition_~m_41 () Int)
(declare-fun addition_~n_42 () Int)
(declare-fun addition_~m_42 () Int)
(declare-fun |addition_#in~m_45| () Int)
(declare-fun addition_~n_45 () Int)
(declare-fun |addition_#in~n_45| () Int)
(declare-fun addition_~m_45 () Int)
(declare-fun addition_~n_46 () Int)
(declare-fun addition_~m_46 () Int)
(declare-fun |addition_#in~m_49| () Int)
(declare-fun addition_~n_49 () Int)
(declare-fun |addition_#in~n_49| () Int)
(declare-fun addition_~m_49 () Int)
(declare-fun addition_~n_50 () Int)
(declare-fun addition_~m_50 () Int)
(declare-fun |addition_#in~m_53| () Int)
(declare-fun addition_~n_53 () Int)
(declare-fun |addition_#in~n_53| () Int)
(declare-fun addition_~m_53 () Int)
(declare-fun addition_~n_54 () Int)
(declare-fun addition_~m_54 () Int)
(declare-fun |addition_#in~m_57| () Int)
(declare-fun addition_~n_57 () Int)
(declare-fun |addition_#in~n_57| () Int)
(declare-fun addition_~m_57 () Int)
(declare-fun addition_~n_58 () Int)
(declare-fun addition_~m_58 () Int)
(declare-fun |addition_#in~m_61| () Int)
(declare-fun addition_~n_61 () Int)
(declare-fun |addition_#in~n_61| () Int)
(declare-fun addition_~m_61 () Int)
(declare-fun addition_~n_62 () Int)
(declare-fun addition_~m_62 () Int)
(declare-fun |addition_#in~m_65| () Int)
(declare-fun addition_~n_65 () Int)
(declare-fun |addition_#in~n_65| () Int)
(declare-fun addition_~m_65 () Int)
(declare-fun addition_~n_66 () Int)
(declare-fun addition_~m_66 () Int)
(declare-fun |addition_#in~m_69| () Int)
(declare-fun addition_~n_69 () Int)
(declare-fun |addition_#in~n_69| () Int)
(declare-fun addition_~m_69 () Int)
(declare-fun addition_~n_70 () Int)
(declare-fun addition_~m_70 () Int)
(declare-fun |addition_#in~m_73| () Int)
(declare-fun addition_~n_73 () Int)
(declare-fun |addition_#in~n_73| () Int)
(declare-fun addition_~m_73 () Int)
(declare-fun addition_~n_74 () Int)
(declare-fun addition_~m_74 () Int)
(declare-fun |addition_#in~m_77| () Int)
(declare-fun addition_~n_77 () Int)
(declare-fun |addition_#in~n_77| () Int)
(declare-fun addition_~m_77 () Int)
(declare-fun addition_~n_78 () Int)
(declare-fun addition_~m_78 () Int)
(declare-fun |addition_#in~m_81| () Int)
(declare-fun addition_~n_81 () Int)
(declare-fun |addition_#in~n_81| () Int)
(declare-fun addition_~m_81 () Int)
(declare-fun addition_~n_82 () Int)
(declare-fun addition_~m_82 () Int)
(declare-fun |addition_#res_83| () Int)
(declare-fun addition_~n_83 () Int)
(declare-fun addition_~m_83 () Int)
(declare-fun |addition_#t~ret4_85| () Int)
(declare-fun |addition_#res_85| () Int)
(declare-fun |addition_#t~ret4_86| () Int)
(declare-fun |addition_#res_86| () Int)
(declare-fun |addition_#t~ret4_88| () Int)
(declare-fun |addition_#res_88| () Int)
(declare-fun |addition_#t~ret4_89| () Int)
(declare-fun |addition_#res_89| () Int)
(declare-fun |addition_#t~ret4_91| () Int)
(declare-fun |addition_#res_91| () Int)
(declare-fun |addition_#t~ret4_92| () Int)
(declare-fun |addition_#res_92| () Int)
(declare-fun |addition_#t~ret4_94| () Int)
(declare-fun |addition_#res_94| () Int)
(declare-fun |addition_#t~ret4_95| () Int)
(declare-fun |addition_#res_95| () Int)
(declare-fun |addition_#t~ret4_97| () Int)
(declare-fun |addition_#res_97| () Int)
(declare-fun |addition_#t~ret4_98| () Int)
(declare-fun |addition_#res_98| () Int)
(declare-fun |addition_#t~ret4_100| () Int)
(declare-fun |addition_#res_100| () Int)
(declare-fun |addition_#t~ret4_101| () Int)
(declare-fun |addition_#res_101| () Int)
(declare-fun |addition_#t~ret4_103| () Int)
(declare-fun |addition_#res_103| () Int)
(declare-fun |addition_#t~ret4_104| () Int)
(declare-fun |addition_#res_104| () Int)
(declare-fun |addition_#t~ret4_106| () Int)
(declare-fun |addition_#res_106| () Int)
(declare-fun |addition_#t~ret4_107| () Int)
(declare-fun |addition_#res_107| () Int)
(declare-fun |addition_#t~ret4_109| () Int)
(declare-fun |addition_#res_109| () Int)
(declare-fun |addition_#t~ret4_110| () Int)
(declare-fun |addition_#res_110| () Int)
(declare-fun |addition_#t~ret4_112| () Int)
(declare-fun |addition_#res_112| () Int)
(declare-fun |addition_#t~ret4_113| () Int)
(declare-fun |addition_#res_113| () Int)
(declare-fun |addition_#t~ret4_115| () Int)
(declare-fun |addition_#res_115| () Int)
(declare-fun |addition_#t~ret4_116| () Int)
(declare-fun |addition_#res_116| () Int)
(declare-fun |addition_#t~ret4_118| () Int)
(declare-fun |addition_#res_118| () Int)
(declare-fun |addition_#t~ret4_119| () Int)
(declare-fun |addition_#res_119| () Int)
(declare-fun |addition_#t~ret4_121| () Int)
(declare-fun |addition_#res_121| () Int)
(declare-fun |addition_#t~ret4_122| () Int)
(declare-fun |addition_#res_122| () Int)
(declare-fun |addition_#t~ret4_124| () Int)
(declare-fun |addition_#res_124| () Int)
(declare-fun |addition_#t~ret4_125| () Int)
(declare-fun |addition_#res_125| () Int)
(declare-fun |addition_#t~ret4_127| () Int)
(declare-fun |addition_#res_127| () Int)
(declare-fun |addition_#t~ret4_128| () Int)
(declare-fun |addition_#res_128| () Int)
(declare-fun |addition_#t~ret4_130| () Int)
(declare-fun |addition_#res_130| () Int)
(declare-fun |addition_#t~ret4_131| () Int)
(declare-fun |addition_#res_131| () Int)
(declare-fun |addition_#t~ret4_133| () Int)
(declare-fun |addition_#res_133| () Int)
(declare-fun |addition_#t~ret4_134| () Int)
(declare-fun |addition_#res_134| () Int)
(declare-fun |addition_#t~ret4_136| () Int)
(declare-fun |addition_#res_136| () Int)
(declare-fun |addition_#t~ret4_137| () Int)
(declare-fun |addition_#res_137| () Int)
(declare-fun |addition_#t~ret4_139| () Int)
(declare-fun |addition_#res_139| () Int)
(declare-fun |addition_#t~ret4_140| () Int)
(declare-fun |addition_#res_140| () Int)
(declare-fun |main_#t~ret8_142| () Int)
(declare-fun |addition_#res_142| () Int)
(declare-fun main_~result~0_143 () Int)
(declare-fun |main_#t~ret8_143| () Int)
(declare-fun main_~result~0_144 () Int)
(declare-fun main_~m~0_144 () Int)
(declare-fun main_~n~0_144 () Int)
(assert (! true :named ssa_precond))
(assert (! (not false) :named ssa_postcond))
(assert (! true :named ssa_0_GlobVarAssigCall))
(assert (! true :named ssa_0_LocVarAssigCall))
(assert (! true :named ssa_0_OldVarAssigCall))
(assert (! (and (< 0 |#StackHeapBarrier_-1|) (= 12 (select |#length_-1| 3)) (= (select |#valid_-1| 3) 1) (= (select |#valid_-1| 2) 1) (= (select |#valid_-1| 1) 1) (= (select (select |#memory_int#0_-1| 1) 1) 0) (= (select |#length_-1| 1) 2) (= 15 (select |#length_-1| 2)) (= (select (select |#memory_int#0_-1| 1) 0) 48) (= (select |#valid_-1| 0) 0)) :named ssa_1))
(assert (! true :named ssa_2_return))
(assert (! true :named ssa_3_GlobVarAssigCall))
(assert (! true :named ssa_3_LocVarAssigCall))
(assert (! true :named ssa_3_OldVarAssigCall))
(assert (! (and (<= 0 (+ main_~m~0_4 2147483648)) (<= main_~m~0_4 2147483647) (<= main_~n~0_4 2147483647) (<= 0 (+ main_~n~0_4 2147483648))) :named ssa_4))
(assert (! true :named ssa_5_GlobVarAssigCall))
(assert (! (and (= |addition_#in~m_5| main_~m~0_4) (= main_~n~0_4 |addition_#in~n_5|)) :named ssa_5_LocVarAssigCall))
(assert (! true :named ssa_5_OldVarAssigCall))
(assert (! (and (= |addition_#in~n_5| addition_~n_6) (= |addition_#in~m_5| addition_~m_6)) :named ssa_6))
(assert (! (not (= 0 addition_~n_6)) :named ssa_7))
(assert (! (< 0 addition_~n_6) :named ssa_8))
(assert (! true :named ssa_9_GlobVarAssigCall))
(assert (! (and (= |addition_#in~m_9| (+ addition_~m_6 1)) (= addition_~n_6 (+ 1 |addition_#in~n_9|))) :named ssa_9_LocVarAssigCall))
(assert (! true :named ssa_9_OldVarAssigCall))
(assert (! (and (= |addition_#in~n_9| addition_~n_10) (= |addition_#in~m_9| addition_~m_10)) :named ssa_10))
(assert (! (not (= 0 addition_~n_10)) :named ssa_11))
(assert (! (< 0 addition_~n_10) :named ssa_12))
(assert (! true :named ssa_13_GlobVarAssigCall))
(assert (! (and (= |addition_#in~m_13| (+ addition_~m_10 1)) (= addition_~n_10 (+ 1 |addition_#in~n_13|))) :named ssa_13_LocVarAssigCall))
(assert (! true :named ssa_13_OldVarAssigCall))
(assert (! (and (= |addition_#in~n_13| addition_~n_14) (= |addition_#in~m_13| addition_~m_14)) :named ssa_14))
(assert (! (not (= 0 addition_~n_14)) :named ssa_15))
(assert (! (< 0 addition_~n_14) :named ssa_16))
(assert (! true :named ssa_17_GlobVarAssigCall))
(assert (! (and (= |addition_#in~m_17| (+ addition_~m_14 1)) (= addition_~n_14 (+ 1 |addition_#in~n_17|))) :named ssa_17_LocVarAssigCall))
(assert (! true :named ssa_17_OldVarAssigCall))
(assert (! (and (= |addition_#in~n_17| addition_~n_18) (= |addition_#in~m_17| addition_~m_18)) :named ssa_18))
(assert (! (not (= 0 addition_~n_18)) :named ssa_19))
(assert (! (< 0 addition_~n_18) :named ssa_20))
(assert (! true :named ssa_21_GlobVarAssigCall))
(assert (! (and (= |addition_#in~m_21| (+ addition_~m_18 1)) (= addition_~n_18 (+ 1 |addition_#in~n_21|))) :named ssa_21_LocVarAssigCall))
(assert (! true :named ssa_21_OldVarAssigCall))
(assert (! (and (= |addition_#in~n_21| addition_~n_22) (= |addition_#in~m_21| addition_~m_22)) :named ssa_22))
(assert (! (not (= 0 addition_~n_22)) :named ssa_23))
(assert (! (< 0 addition_~n_22) :named ssa_24))
(assert (! true :named ssa_25_GlobVarAssigCall))
(assert (! (and (= |addition_#in~m_25| (+ addition_~m_22 1)) (= addition_~n_22 (+ 1 |addition_#in~n_25|))) :named ssa_25_LocVarAssigCall))
(assert (! true :named ssa_25_OldVarAssigCall))
(assert (! (and (= |addition_#in~n_25| addition_~n_26) (= |addition_#in~m_25| addition_~m_26)) :named ssa_26))
(assert (! (not (= 0 addition_~n_26)) :named ssa_27))
(assert (! (< 0 addition_~n_26) :named ssa_28))
(assert (! true :named ssa_29_GlobVarAssigCall))
(assert (! (and (= |addition_#in~m_29| (+ addition_~m_26 1)) (= addition_~n_26 (+ 1 |addition_#in~n_29|))) :named ssa_29_LocVarAssigCall))
(assert (! true :named ssa_29_OldVarAssigCall))
(assert (! (and (= |addition_#in~n_29| addition_~n_30) (= |addition_#in~m_29| addition_~m_30)) :named ssa_30))
(assert (! (not (= 0 addition_~n_30)) :named ssa_31))
(assert (! (< 0 addition_~n_30) :named ssa_32))
(assert (! true :named ssa_33_GlobVarAssigCall))
(assert (! (and (= |addition_#in~m_33| (+ addition_~m_30 1)) (= addition_~n_30 (+ 1 |addition_#in~n_33|))) :named ssa_33_LocVarAssigCall))
(assert (! true :named ssa_33_OldVarAssigCall))
(assert (! (and (= |addition_#in~n_33| addition_~n_34) (= |addition_#in~m_33| addition_~m_34)) :named ssa_34))
(assert (! (not (= 0 addition_~n_34)) :named ssa_35))
(assert (! (< 0 addition_~n_34) :named ssa_36))
(assert (! true :named ssa_37_GlobVarAssigCall))
(assert (! (and (= |addition_#in~m_37| (+ addition_~m_34 1)) (= addition_~n_34 (+ 1 |addition_#in~n_37|))) :named ssa_37_LocVarAssigCall))
(assert (! true :named ssa_37_OldVarAssigCall))
(assert (! (and (= |addition_#in~n_37| addition_~n_38) (= |addition_#in~m_37| addition_~m_38)) :named ssa_38))
(assert (! (not (= 0 addition_~n_38)) :named ssa_39))
(assert (! (< 0 addition_~n_38) :named ssa_40))
(assert (! true :named ssa_41_GlobVarAssigCall))
(assert (! (and (= |addition_#in~m_41| (+ addition_~m_38 1)) (= addition_~n_38 (+ 1 |addition_#in~n_41|))) :named ssa_41_LocVarAssigCall))
(assert (! true :named ssa_41_OldVarAssigCall))
(assert (! (and (= |addition_#in~n_41| addition_~n_42) (= |addition_#in~m_41| addition_~m_42)) :named ssa_42))
(assert (! (not (= 0 addition_~n_42)) :named ssa_43))
(assert (! (< 0 addition_~n_42) :named ssa_44))
(assert (! true :named ssa_45_GlobVarAssigCall))
(assert (! (and (= |addition_#in~m_45| (+ addition_~m_42 1)) (= addition_~n_42 (+ 1 |addition_#in~n_45|))) :named ssa_45_LocVarAssigCall))
(assert (! true :named ssa_45_OldVarAssigCall))
(assert (! (and (= |addition_#in~n_45| addition_~n_46) (= |addition_#in~m_45| addition_~m_46)) :named ssa_46))
(assert (! (not (= 0 addition_~n_46)) :named ssa_47))
(assert (! (< 0 addition_~n_46) :named ssa_48))
(assert (! true :named ssa_49_GlobVarAssigCall))
(assert (! (and (= |addition_#in~m_49| (+ addition_~m_46 1)) (= addition_~n_46 (+ 1 |addition_#in~n_49|))) :named ssa_49_LocVarAssigCall))
(assert (! true :named ssa_49_OldVarAssigCall))
(assert (! (and (= |addition_#in~n_49| addition_~n_50) (= |addition_#in~m_49| addition_~m_50)) :named ssa_50))
(assert (! (not (= 0 addition_~n_50)) :named ssa_51))
(assert (! (< 0 addition_~n_50) :named ssa_52))
(assert (! true :named ssa_53_GlobVarAssigCall))
(assert (! (and (= |addition_#in~m_53| (+ addition_~m_50 1)) (= addition_~n_50 (+ 1 |addition_#in~n_53|))) :named ssa_53_LocVarAssigCall))
(assert (! true :named ssa_53_OldVarAssigCall))
(assert (! (and (= |addition_#in~n_53| addition_~n_54) (= |addition_#in~m_53| addition_~m_54)) :named ssa_54))
(assert (! (not (= 0 addition_~n_54)) :named ssa_55))
(assert (! (< 0 addition_~n_54) :named ssa_56))
(assert (! true :named ssa_57_GlobVarAssigCall))
(assert (! (and (= |addition_#in~m_57| (+ addition_~m_54 1)) (= addition_~n_54 (+ 1 |addition_#in~n_57|))) :named ssa_57_LocVarAssigCall))
(assert (! true :named ssa_57_OldVarAssigCall))
(assert (! (and (= |addition_#in~n_57| addition_~n_58) (= |addition_#in~m_57| addition_~m_58)) :named ssa_58))
(assert (! (not (= 0 addition_~n_58)) :named ssa_59))
(assert (! (< 0 addition_~n_58) :named ssa_60))
(assert (! true :named ssa_61_GlobVarAssigCall))
(assert (! (and (= |addition_#in~m_61| (+ addition_~m_58 1)) (= addition_~n_58 (+ 1 |addition_#in~n_61|))) :named ssa_61_LocVarAssigCall))
(assert (! true :named ssa_61_OldVarAssigCall))
(assert (! (and (= |addition_#in~n_61| addition_~n_62) (= |addition_#in~m_61| addition_~m_62)) :named ssa_62))
(assert (! (not (= 0 addition_~n_62)) :named ssa_63))
(assert (! (< 0 addition_~n_62) :named ssa_64))
(assert (! true :named ssa_65_GlobVarAssigCall))
(assert (! (and (= |addition_#in~m_65| (+ addition_~m_62 1)) (= addition_~n_62 (+ 1 |addition_#in~n_65|))) :named ssa_65_LocVarAssigCall))
(assert (! true :named ssa_65_OldVarAssigCall))
(assert (! (and (= |addition_#in~n_65| addition_~n_66) (= |addition_#in~m_65| addition_~m_66)) :named ssa_66))
(assert (! (not (= 0 addition_~n_66)) :named ssa_67))
(assert (! (< 0 addition_~n_66) :named ssa_68))
(assert (! true :named ssa_69_GlobVarAssigCall))
(assert (! (and (= |addition_#in~m_69| (+ addition_~m_66 1)) (= addition_~n_66 (+ 1 |addition_#in~n_69|))) :named ssa_69_LocVarAssigCall))
(assert (! true :named ssa_69_OldVarAssigCall))
(assert (! (and (= |addition_#in~n_69| addition_~n_70) (= |addition_#in~m_69| addition_~m_70)) :named ssa_70))
(assert (! (not (= 0 addition_~n_70)) :named ssa_71))
(assert (! (< 0 addition_~n_70) :named ssa_72))
(assert (! true :named ssa_73_GlobVarAssigCall))
(assert (! (and (= |addition_#in~m_73| (+ addition_~m_70 1)) (= addition_~n_70 (+ 1 |addition_#in~n_73|))) :named ssa_73_LocVarAssigCall))
(assert (! true :named ssa_73_OldVarAssigCall))
(assert (! (and (= |addition_#in~n_73| addition_~n_74) (= |addition_#in~m_73| addition_~m_74)) :named ssa_74))
(assert (! (not (= 0 addition_~n_74)) :named ssa_75))
(assert (! (< 0 addition_~n_74) :named ssa_76))
(assert (! true :named ssa_77_GlobVarAssigCall))
(assert (! (and (= |addition_#in~m_77| (+ addition_~m_74 1)) (= addition_~n_74 (+ 1 |addition_#in~n_77|))) :named ssa_77_LocVarAssigCall))
(assert (! true :named ssa_77_OldVarAssigCall))
(assert (! (and (= |addition_#in~n_77| addition_~n_78) (= |addition_#in~m_77| addition_~m_78)) :named ssa_78))
(assert (! (not (= 0 addition_~n_78)) :named ssa_79))
(assert (! (< 0 addition_~n_78) :named ssa_80))
(assert (! true :named ssa_81_GlobVarAssigCall))
(assert (! (and (= |addition_#in~m_81| (+ addition_~m_78 1)) (= addition_~n_78 (+ 1 |addition_#in~n_81|))) :named ssa_81_LocVarAssigCall))
(assert (! true :named ssa_81_OldVarAssigCall))
(assert (! (and (= |addition_#in~n_81| addition_~n_82) (= |addition_#in~m_81| addition_~m_82)) :named ssa_82))
(assert (! (and (= 0 addition_~n_82) (= |addition_#res_83| addition_~m_82)) :named ssa_83))
(assert (! true :named ssa_84))
(assert (! (= |addition_#res_83| |addition_#t~ret4_85|) :named ssa_85_return))
(assert (! (and (<= 0 (+ 9223372036854775808 |addition_#t~ret4_85|)) (<= |addition_#t~ret4_85| 9223372036854775807) (= |addition_#res_86| |addition_#t~ret4_85|)) :named ssa_86))
(assert (! true :named ssa_87))
(assert (! (= |addition_#res_86| |addition_#t~ret4_88|) :named ssa_88_return))
(assert (! (and (<= 0 (+ 9223372036854775808 |addition_#t~ret4_88|)) (<= |addition_#t~ret4_88| 9223372036854775807) (= |addition_#res_89| |addition_#t~ret4_88|)) :named ssa_89))
(assert (! true :named ssa_90))
(assert (! (= |addition_#res_89| |addition_#t~ret4_91|) :named ssa_91_return))
(assert (! (and (<= 0 (+ 9223372036854775808 |addition_#t~ret4_91|)) (<= |addition_#t~ret4_91| 9223372036854775807) (= |addition_#res_92| |addition_#t~ret4_91|)) :named ssa_92))
(assert (! true :named ssa_93))
(assert (! (= |addition_#res_92| |addition_#t~ret4_94|) :named ssa_94_return))
(assert (! (and (<= 0 (+ 9223372036854775808 |addition_#t~ret4_94|)) (<= |addition_#t~ret4_94| 9223372036854775807) (= |addition_#res_95| |addition_#t~ret4_94|)) :named ssa_95))
(assert (! true :named ssa_96))
(assert (! (= |addition_#res_95| |addition_#t~ret4_97|) :named ssa_97_return))
(assert (! (and (<= 0 (+ 9223372036854775808 |addition_#t~ret4_97|)) (<= |addition_#t~ret4_97| 9223372036854775807) (= |addition_#res_98| |addition_#t~ret4_97|)) :named ssa_98))
(assert (! true :named ssa_99))
(assert (! (= |addition_#res_98| |addition_#t~ret4_100|) :named ssa_100_return))
(assert (! (and (<= 0 (+ 9223372036854775808 |addition_#t~ret4_100|)) (<= |addition_#t~ret4_100| 9223372036854775807) (= |addition_#res_101| |addition_#t~ret4_100|)) :named ssa_101))
(assert (! true :named ssa_102))
(assert (! (= |addition_#res_101| |addition_#t~ret4_103|) :named ssa_103_return))
(assert (! (and (<= 0 (+ 9223372036854775808 |addition_#t~ret4_103|)) (<= |addition_#t~ret4_103| 9223372036854775807) (= |addition_#res_104| |addition_#t~ret4_103|)) :named ssa_104))
(assert (! true :named ssa_105))
(assert (! (= |addition_#res_104| |addition_#t~ret4_106|) :named ssa_106_return))
(assert (! (and (<= 0 (+ 9223372036854775808 |addition_#t~ret4_106|)) (<= |addition_#t~ret4_106| 9223372036854775807) (= |addition_#res_107| |addition_#t~ret4_106|)) :named ssa_107))
(assert (! true :named ssa_108))
(assert (! (= |addition_#res_107| |addition_#t~ret4_109|) :named ssa_109_return))
(assert (! (and (<= 0 (+ 9223372036854775808 |addition_#t~ret4_109|)) (<= |addition_#t~ret4_109| 9223372036854775807) (= |addition_#res_110| |addition_#t~ret4_109|)) :named ssa_110))
(assert (! true :named ssa_111))
(assert (! (= |addition_#res_110| |addition_#t~ret4_112|) :named ssa_112_return))
(assert (! (and (<= 0 (+ 9223372036854775808 |addition_#t~ret4_112|)) (<= |addition_#t~ret4_112| 9223372036854775807) (= |addition_#res_113| |addition_#t~ret4_112|)) :named ssa_113))
(assert (! true :named ssa_114))
(assert (! (= |addition_#res_113| |addition_#t~ret4_115|) :named ssa_115_return))
(assert (! (and (<= 0 (+ 9223372036854775808 |addition_#t~ret4_115|)) (<= |addition_#t~ret4_115| 9223372036854775807) (= |addition_#res_116| |addition_#t~ret4_115|)) :named ssa_116))
(assert (! true :named ssa_117))
(assert (! (= |addition_#res_116| |addition_#t~ret4_118|) :named ssa_118_return))
(assert (! (and (<= 0 (+ 9223372036854775808 |addition_#t~ret4_118|)) (<= |addition_#t~ret4_118| 9223372036854775807) (= |addition_#res_119| |addition_#t~ret4_118|)) :named ssa_119))
(assert (! true :named ssa_120))
(assert (! (= |addition_#res_119| |addition_#t~ret4_121|) :named ssa_121_return))
(assert (! (and (<= 0 (+ 9223372036854775808 |addition_#t~ret4_121|)) (<= |addition_#t~ret4_121| 9223372036854775807) (= |addition_#res_122| |addition_#t~ret4_121|)) :named ssa_122))
(assert (! true :named ssa_123))
(assert (! (= |addition_#res_122| |addition_#t~ret4_124|) :named ssa_124_return))
(assert (! (and (<= 0 (+ 9223372036854775808 |addition_#t~ret4_124|)) (<= |addition_#t~ret4_124| 9223372036854775807) (= |addition_#res_125| |addition_#t~ret4_124|)) :named ssa_125))
(assert (! true :named ssa_126))
(assert (! (= |addition_#res_125| |addition_#t~ret4_127|) :named ssa_127_return))
(assert (! (and (<= 0 (+ 9223372036854775808 |addition_#t~ret4_127|)) (<= |addition_#t~ret4_127| 9223372036854775807) (= |addition_#res_128| |addition_#t~ret4_127|)) :named ssa_128))
(assert (! true :named ssa_129))
(assert (! (= |addition_#res_128| |addition_#t~ret4_130|) :named ssa_130_return))
(assert (! (and (<= 0 (+ 9223372036854775808 |addition_#t~ret4_130|)) (<= |addition_#t~ret4_130| 9223372036854775807) (= |addition_#res_131| |addition_#t~ret4_130|)) :named ssa_131))
(assert (! true :named ssa_132))
(assert (! (= |addition_#res_131| |addition_#t~ret4_133|) :named ssa_133_return))
(assert (! (and (<= 0 (+ 9223372036854775808 |addition_#t~ret4_133|)) (<= |addition_#t~ret4_133| 9223372036854775807) (= |addition_#res_134| |addition_#t~ret4_133|)) :named ssa_134))
(assert (! true :named ssa_135))
(assert (! (= |addition_#res_134| |addition_#t~ret4_136|) :named ssa_136_return))
(assert (! (and (<= 0 (+ 9223372036854775808 |addition_#t~ret4_136|)) (<= |addition_#t~ret4_136| 9223372036854775807) (= |addition_#res_137| |addition_#t~ret4_136|)) :named ssa_137))
(assert (! true :named ssa_138))
(assert (! (= |addition_#res_137| |addition_#t~ret4_139|) :named ssa_139_return))
(assert (! (and (<= 0 (+ 9223372036854775808 |addition_#t~ret4_139|)) (<= |addition_#t~ret4_139| 9223372036854775807) (= |addition_#res_140| |addition_#t~ret4_139|)) :named ssa_140))
(assert (! true :named ssa_141))
(assert (! (= |addition_#res_140| |main_#t~ret8_142|) :named ssa_142_return))
(assert (! (and (<= |main_#t~ret8_142| 9223372036854775807) (<= 0 (+ |main_#t~ret8_142| 9223372036854775808)) (= main_~result~0_143 |main_#t~ret8_142|)) :named ssa_143))
(assert (! (and (< main_~result~0_143 200) (<= 100 main_~n~0_4) (<= 100 main_~m~0_4)) :named ssa_144))
(assert (! true :named ssa_145))
(check-sat)
(get-interpolants (and ssa_0_LocVarAssigCall ssa_precond ssa_0_GlobVarAssigCall ssa_0_OldVarAssigCall ssa_2_return ssa_1) (and ssa_3_OldVarAssigCall ssa_3_LocVarAssigCall ssa_3_GlobVarAssigCall) ssa_4 (and ssa_57_OldVarAssigCall ssa_65_OldVarAssigCall ssa_75 ssa_27 ssa_116 ssa_29_OldVarAssigCall ssa_20 ssa_41_GlobVarAssigCall ssa_17_LocVarAssigCall ssa_21_LocVarAssigCall ssa_95 ssa_81_LocVarAssigCall ssa_64 ssa_5_LocVarAssigCall ssa_31 ssa_99 ssa_60 ssa_5_GlobVarAssigCall ssa_103_return ssa_21_OldVarAssigCall ssa_76 ssa_136_return ssa_68 ssa_7 ssa_125 ssa_84 ssa_44 ssa_16 ssa_6 ssa_26 ssa_55 ssa_67 ssa_34 ssa_17_GlobVarAssigCall ssa_69_OldVarAssigCall ssa_142_return ssa_74 ssa_109_return ssa_25_GlobVarAssigCall ssa_40 ssa_10 ssa_14 ssa_120 ssa_25_OldVarAssigCall ssa_96 ssa_134 ssa_8 ssa_13_LocVarAssigCall ssa_77_LocVarAssigCall ssa_29_GlobVarAssigCall ssa_112_return ssa_122 ssa_124_return ssa_46 ssa_53_GlobVarAssigCall ssa_89 ssa_47 ssa_111 ssa_90 ssa_133_return ssa_13_OldVarAssigCall ssa_113 ssa_25_LocVarAssigCall ssa_140 ssa_105 ssa_82 ssa_37_LocVarAssigCall ssa_101 ssa_49_LocVarAssigCall ssa_86 ssa_97_return ssa_88_return ssa_73_GlobVarAssigCall ssa_58 ssa_108 ssa_110 ssa_33_GlobVarAssigCall ssa_121_return ssa_19 ssa_135 ssa_83 ssa_141 ssa_87 ssa_139_return ssa_33_LocVarAssigCall ssa_59 ssa_61_OldVarAssigCall ssa_39 ssa_53_LocVarAssigCall ssa_62 ssa_43 ssa_106_return ssa_69_GlobVarAssigCall ssa_72 ssa_13_GlobVarAssigCall ssa_41_OldVarAssigCall ssa_17_OldVarAssigCall ssa_94_return ssa_119 ssa_38 ssa_79 ssa_100_return ssa_12 ssa_115_return ssa_126 ssa_131 ssa_128 ssa_32 ssa_5_OldVarAssigCall ssa_50 ssa_81_GlobVarAssigCall ssa_118_return ssa_65_LocVarAssigCall ssa_81_OldVarAssigCall ssa_61_LocVarAssigCall ssa_104 ssa_117 ssa_114 ssa_137 ssa_61_GlobVarAssigCall ssa_41_LocVarAssigCall ssa_11 ssa_48 ssa_53_OldVarAssigCall ssa_28 ssa_29_LocVarAssigCall ssa_54 ssa_73_LocVarAssigCall ssa_37_GlobVarAssigCall ssa_22 ssa_98 ssa_51 ssa_36 ssa_15 ssa_77_OldVarAssigCall ssa_80 ssa_107 ssa_127_return ssa_63 ssa_45_OldVarAssigCall ssa_45_LocVarAssigCall ssa_102 ssa_78 ssa_123 ssa_85_return ssa_52 ssa_132 ssa_18 ssa_49_GlobVarAssigCall ssa_77_GlobVarAssigCall ssa_23 ssa_129 ssa_69_LocVarAssigCall ssa_30 ssa_70 ssa_66 ssa_9_LocVarAssigCall ssa_92 ssa_56 ssa_57_LocVarAssigCall ssa_93 ssa_9_OldVarAssigCall ssa_35 ssa_73_OldVarAssigCall ssa_21_GlobVarAssigCall ssa_9_GlobVarAssigCall ssa_65_GlobVarAssigCall ssa_33_OldVarAssigCall ssa_130_return ssa_45_GlobVarAssigCall ssa_49_OldVarAssigCall ssa_42 ssa_71 ssa_57_GlobVarAssigCall ssa_91_return ssa_138 ssa_24 ssa_37_OldVarAssigCall) ssa_143 ssa_144 (and ssa_145 ssa_postcond))
(exit)
